sat
(= |goto_symex::&92;guard#1| true)
(= |goto_symex::&92;guard#2| false)
(= |memory_model::choice_rf_1_5_0_11_T_0| false)
(= |memory_model::choice_rf_1_5_2_8_T_1| false)
(= |memory_model::choice_rf_1_5_3_23_T_2| true)
(= |memory_model::choice_rf_1_5_4_64_T_3| false)
(= |memory_model::choice_rf_2_7_0_11_T_4| true)
(= |memory_model::choice_rf_2_7_1_6_T_5| false)
(= |memory_model::choice_rf_2_7_3_23_T_6| false)
(= |memory_model::choice_rf_2_7_4_64_T_7| false)
(= |memory_model::choice_rf_3_22_0_11_T_8| false)
(= |memory_model::choice_rf_3_22_1_6_T_9| false)
(= |memory_model::choice_rf_3_22_2_8_T_10| true)
(= |memory_model::choice_rf_3_22_4_64_T_11| false)
(= |memory_model::choice_rf_4_63_0_11_T_12| false)
(= |memory_model::choice_rf_4_63_1_6_T_13| false)
(= |memory_model::choice_rf_4_63_2_8_T_14| true)
(= |memory_model::choice_rf_4_63_3_23_T_15| false)
(= |memory_model::choice_rf_0_50_0_9_T_16| false)
(= |memory_model::choice_rf_0_50_0_46_T_17| true)
(= |memory_model::choice_rf_0_55_0_9_T_18| false)
(= |memory_model::choice_rf_0_55_0_46_T_19| false)
(= |memory_model::choice_rf_0_55_0_51_T_20| true)
(= |memory_model::choice_rf_0_60_0_9_T_21| false)
(= |memory_model::choice_rf_0_60_0_46_T_22| false)
(= |memory_model::choice_rf_0_60_0_51_T_23| false)
(= |memory_model::choice_rf_0_60_0_56_T_24| true)
(= |memory_model::choice_rf_1_1_0_24_F_25| true)
(= |memory_model::choice_rf_1_1_2_0_F_26| false)
(= |memory_model::choice_rf_2_1_0_24_F_27| false)
(= |memory_model::choice_rf_2_1_2_0_F_28| true)
(= |memory_model::choice_rf_0_64_0_12_F_29| false)
(= |memory_model::choice_rf_0_64_1_4_F_30| false)
(= |memory_model::choice_rf_0_64_2_6_F_31| false)
(= |memory_model::choice_rf_0_64_3_21_F_32| true)
(= |memory_model::choice_rf_0_64_4_62_F_33| false)
(= |memory_model::choice_rf_1_3_0_12_F_34| false)
(= |memory_model::choice_rf_1_3_2_6_F_35| false)
(= |memory_model::choice_rf_1_3_3_21_F_36| false)
(= |memory_model::choice_rf_1_3_4_62_F_37| true)
(= |memory_model::choice_rf_2_5_0_12_F_38| true)
(= |memory_model::choice_rf_2_5_1_4_F_39| false)
(= |memory_model::choice_rf_2_5_3_21_F_40| false)
(= |memory_model::choice_rf_2_5_4_62_F_41| false)
(= |memory_model::choice_rf_3_20_0_12_F_42| false)
(= |memory_model::choice_rf_3_20_1_4_F_43| true)
(= |memory_model::choice_rf_3_20_2_6_F_44| false)
(= |memory_model::choice_rf_3_20_4_62_F_45| false)
(= |memory_model::choice_rf_4_61_0_12_F_46| false)
(= |memory_model::choice_rf_4_61_1_4_F_47| false)
(= |memory_model::choice_rf_4_61_2_6_F_48| true)
(= |memory_model::choice_rf_4_61_3_21_F_49| false)
(= |memory_model::choice_rf_0_85_0_13_F_50| false)
(= |memory_model::choice_rf_0_85_1_2_F_51| true)
(= |memory_model::choice_rf_0_84_0_14_F_52| false)
(= |memory_model::choice_rf_0_84_2_2_F_53| true)
(= |memory_model::choice_rf_0_83_0_15_F_54| false)
(= |memory_model::choice_rf_0_83_2_4_F_55| true)
(= |memory_model::choice_rf_0_82_0_16_F_56| false)
(= |memory_model::choice_rf_0_82_3_8_F_57| true)
(= |memory_model::choice_rf_0_81_0_17_F_58| false)
(= |memory_model::choice_rf_0_81_4_34_F_59| true)
(= |memory_model::choice_rf_4_22_0_17_F_60| false)
(= |memory_model::choice_rf_0_80_0_18_F_61| false)
(= |memory_model::choice_rf_0_80_4_48_F_62| true)
(= |memory_model::choice_rf_4_46_0_18_F_63| false)
(= |memory_model::choice_rf_4_47_0_19_F_64| true)
(= |memory_model::choice_rf_4_47_1_0_F_65| false)
(= |memory_model::choice_rf_0_66_0_20_F_66| false)
(= |memory_model::choice_rf_0_66_0_65_F_67| true)
(= |memory_model::choice_rf_0_79_0_21_F_68| false)
(= |memory_model::choice_rf_0_87_0_21_F_69| false)
(= |memory_model::choice_rf_0_87_0_86_F_70| true)
(= |memory_model::choice_rf_0_88_0_21_F_71| false)
(= |memory_model::choice_rf_0_88_0_86_F_72| true)
(= |memory_model::choice_rf_2_3_0_25_F_73| true)
(= |memory_model::choice_rf_2_3_3_0_F_74| false)
(= |memory_model::choice_rf_0_68_0_26_F_75| false)
(= |memory_model::choice_rf_0_68_3_14_F_76| false)
(= |memory_model::choice_rf_0_68_4_41_F_77| false)
(= |memory_model::choice_rf_0_68_4_60_F_78| true)
(= |memory_model::choice_rf_3_7_0_26_F_79| false)
(= |memory_model::choice_rf_3_7_0_78_F_80| false)
(= |memory_model::choice_rf_3_7_4_41_F_81| true)
(= |memory_model::choice_rf_3_7_4_60_F_82| false)
(= |memory_model::choice_rf_4_30_0_26_F_83| true)
(= |memory_model::choice_rf_4_30_0_78_F_84| false)
(= |memory_model::choice_rf_4_30_3_14_F_85| false)
(= |memory_model::choice_rf_4_50_0_26_F_86| false)
(= |memory_model::choice_rf_4_50_0_78_F_87| false)
(= |memory_model::choice_rf_4_50_3_14_F_88| true)
(= |memory_model::choice_rf_4_50_4_41_F_89| false)
(= |memory_model::choice_rf_4_31_0_27_F_90| false)
(= |memory_model::choice_rf_4_31_3_17_F_91| false)
(= |memory_model::choice_rf_4_28_0_28_F_92| false)
(= |memory_model::choice_rf_4_28_3_15_F_93| false)
(= |memory_model::choice_rf_0_72_0_29_F_94| true)
(= |memory_model::choice_rf_4_7_0_29_F_95| true)
(= |memory_model::choice_rf_4_7_0_75_F_96| false)
(= |memory_model::choice_rf_4_5_0_30_F_97| true)
(= |memory_model::choice_rf_4_1_0_31_F_98| true)
(= |memory_model::choice_rf_3_3_0_32_F_99| true)
(= |memory_model::choice_rf_4_0_0_32_F_100| true)
(= |memory_model::choice_rf_4_0_3_16_F_101| false)
(= |memory_model::choice_rf_4_4_0_33_F_102| true)
(= |memory_model::choice_rf_4_25_0_33_F_103| false)
(= |memory_model::choice_rf_4_25_4_14_F_104| true)
(= |memory_model::choice_rf_4_53_0_33_F_105| false)
(= |memory_model::choice_rf_4_53_4_14_F_106| false)
(= |memory_model::choice_rf_4_53_4_35_F_107| true)
(= |memory_model::choice_rf_0_71_0_34_F_108| false)
(= |memory_model::choice_rf_0_71_4_15_F_109| true)
(= |memory_model::choice_rf_4_6_0_34_F_110| false)
(= |memory_model::choice_rf_4_6_0_74_F_111| false)
(= |memory_model::choice_rf_4_3_0_35_F_112| false)
(= |memory_model::choice_rf_4_2_0_36_F_113| false)
(= |memory_model::choice_rf_3_4_0_37_F_114| false)
(= |memory_model::choice_rf_3_4_4_17_F_115| true)
(= |memory_model::choice_rf_4_9_0_37_F_116| false)
(= |memory_model::choice_rf_4_9_3_9_F_117| false)
(= |memory_model::choice_rf_4_8_0_38_F_118| false)
(= |memory_model::choice_rf_4_26_0_38_F_119| false)
(= |memory_model::choice_rf_4_26_4_16_F_120| true)
(= |memory_model::choice_rf_4_54_0_38_F_121| false)
(= |memory_model::choice_rf_4_54_4_16_F_122| false)
(= |memory_model::choice_rf_4_54_4_36_F_123| true)
(= |memory_model::choice_rf_0_70_0_41_F_124| false)
(= |memory_model::choice_rf_0_70_3_12_F_125| true)
(= |memory_model::choice_rf_0_70_4_20_F_126| false)
(= |memory_model::choice_rf_0_70_4_39_F_127| false)
(= |memory_model::choice_rf_3_2_0_41_F_128| false)
(= |memory_model::choice_rf_3_2_4_20_F_129| false)
(= |memory_model::choice_rf_3_2_4_39_F_130| true)
(= |memory_model::choice_rf_4_11_0_41_F_131| true)
(= |memory_model::choice_rf_4_11_3_12_F_132| false)
(= |memory_model::choice_rf_4_24_0_41_F_133| false)
(= |memory_model::choice_rf_4_24_3_12_F_134| false)
(= |memory_model::choice_rf_4_24_4_20_F_135| true)
(= |memory_model::choice_rf_4_52_0_41_F_136| false)
(= |memory_model::choice_rf_4_52_3_12_F_137| true)
(= |memory_model::choice_rf_4_52_4_20_F_138| false)
(= |memory_model::choice_rf_4_52_4_39_F_139| false)
(= |memory_model::choice_rf_0_73_0_42_F_140| false)
(= |memory_model::choice_rf_0_73_3_10_F_141| false)
(= |memory_model::choice_rf_0_73_4_18_F_142| false)
(= |memory_model::choice_rf_0_73_4_37_F_143| false)
(= |memory_model::choice_rf_0_73_4_58_F_144| true)
(= |memory_model::choice_rf_3_5_0_42_F_145| false)
(= |memory_model::choice_rf_3_5_0_76_F_146| false)
(= |memory_model::choice_rf_3_5_4_18_F_147| false)
(= |memory_model::choice_rf_3_5_4_37_F_148| true)
(= |memory_model::choice_rf_3_5_4_58_F_149| false)
(= |memory_model::choice_rf_4_10_0_42_F_150| true)
(= |memory_model::choice_rf_4_10_0_76_F_151| false)
(= |memory_model::choice_rf_4_10_3_10_F_152| false)
(= |memory_model::choice_rf_4_27_0_42_F_153| false)
(= |memory_model::choice_rf_4_27_0_76_F_154| false)
(= |memory_model::choice_rf_4_27_3_10_F_155| false)
(= |memory_model::choice_rf_4_27_4_18_F_156| true)
(= |memory_model::choice_rf_4_55_0_42_F_157| false)
(= |memory_model::choice_rf_4_55_0_76_F_158| false)
(= |memory_model::choice_rf_4_55_3_10_F_159| true)
(= |memory_model::choice_rf_4_55_4_18_F_160| false)
(= |memory_model::choice_rf_4_55_4_37_F_161| false)
(= |memory_model::choice_rf_0_67_0_43_F_162| false)
(= |memory_model::choice_rf_0_67_3_11_F_163| true)
(= |memory_model::choice_rf_0_67_4_21_F_164| false)
(= |memory_model::choice_rf_0_67_4_38_F_165| false)
(= |memory_model::choice_rf_3_1_0_43_F_166| false)
(= |memory_model::choice_rf_3_1_4_21_F_167| false)
(= |memory_model::choice_rf_3_1_4_38_F_168| true)
(= |memory_model::choice_rf_4_23_0_43_F_169| false)
(= |memory_model::choice_rf_4_23_3_11_F_170| false)
(= |memory_model::choice_rf_4_23_4_21_F_171| true)
(= |memory_model::choice_rf_4_49_0_43_F_172| false)
(= |memory_model::choice_rf_4_49_3_11_F_173| true)
(= |memory_model::choice_rf_4_49_4_21_F_174| false)
(= |memory_model::choice_rf_4_49_4_38_F_175| false)
(= |memory_model::choice_rf_0_69_0_44_F_176| false)
(= |memory_model::choice_rf_0_69_3_13_F_177| false)
(= |memory_model::choice_rf_0_69_4_19_F_178| false)
(= |memory_model::choice_rf_0_69_4_40_F_179| false)
(= |memory_model::choice_rf_0_69_4_59_F_180| true)
(= |memory_model::choice_rf_3_6_0_44_F_181| false)
(= |memory_model::choice_rf_3_6_0_77_F_182| false)
(= |memory_model::choice_rf_3_6_4_19_F_183| false)
(= |memory_model::choice_rf_3_6_4_40_F_184| true)
(= |memory_model::choice_rf_3_6_4_59_F_185| false)
(= |memory_model::choice_rf_4_29_0_44_F_186| false)
(= |memory_model::choice_rf_4_29_0_77_F_187| false)
(= |memory_model::choice_rf_4_29_3_13_F_188| false)
(= |memory_model::choice_rf_4_29_4_19_F_189| true)
(= |memory_model::choice_rf_4_51_0_44_F_190| false)
(= |memory_model::choice_rf_4_51_0_77_F_191| false)
(= |memory_model::choice_rf_4_51_3_13_F_192| true)
(= |memory_model::choice_rf_4_51_4_19_F_193| false)
(= |memory_model::choice_rf_4_51_4_40_F_194| false)
(= |memory_model::choice_rf_4_33_0_22_F_195| false)
(= |memory_model::choice_rf_4_33_3_19_F_196| false)
(= |memory_model::choice_rf_4_32_0_23_F_197| false)
(= |memory_model::choice_rf_4_32_3_18_F_198| false)
(= |memory_model::choice_ws-ext_0_11_1_6_T_199| true)
(= |memory_model::choice_ws-ext_0_11_2_8_T_200| true)
(= |memory_model::choice_ws-ext_0_11_3_23_T_201| true)
(= |memory_model::choice_ws-ext_0_11_4_64_T_202| true)
(= |memory_model::choice_ws-ext_1_6_2_8_T_203| false)
(= |memory_model::choice_ws-ext_1_6_3_23_T_204| false)
(= |memory_model::choice_ws-ext_1_6_4_64_T_205| false)
(= |memory_model::choice_ws-ext_2_8_3_23_T_206| true)
(= |memory_model::choice_ws-ext_2_8_4_64_T_207| true)
(= |memory_model::choice_ws-ext_3_23_4_64_T_208| false)
(= |memory_model::choice_ws-ext_0_24_2_0_F_209| true)
(= |memory_model::choice_ws-ext_0_12_1_4_F_210| true)
(= |memory_model::choice_ws-ext_0_12_2_6_F_211| true)
(= |memory_model::choice_ws-ext_0_12_3_21_F_212| true)
(= |memory_model::choice_ws-ext_0_12_4_62_F_213| true)
(= |memory_model::choice_ws-ext_1_4_2_6_F_214| false)
(= |memory_model::choice_ws-ext_1_4_3_21_F_215| true)
(= |memory_model::choice_ws-ext_1_4_4_62_F_216| false)
(= |memory_model::choice_ws-ext_2_6_3_21_F_217| true)
(= |memory_model::choice_ws-ext_2_6_4_62_F_218| true)
(= |memory_model::choice_ws-ext_3_21_4_62_F_219| false)
(= |memory_model::choice_ws-ext_0_13_1_2_F_220| true)
(= |memory_model::choice_ws-ext_0_14_2_2_F_221| true)
(= |memory_model::choice_ws-ext_0_15_2_4_F_222| true)
(= |memory_model::choice_ws-ext_0_16_3_8_F_223| true)
(= |memory_model::choice_ws-ext_0_17_4_34_F_224| true)
(= |memory_model::choice_ws-ext_0_18_4_48_F_225| true)
(= |memory_model::choice_ws-ext_0_19_1_0_F_226| true)
(= |memory_model::choice_ws-ext_0_25_3_0_F_227| true)
(= |memory_model::choice_ws-ext_0_26_3_14_F_228| true)
(= |memory_model::choice_ws-ext_0_26_4_41_F_229| true)
(= |memory_model::choice_ws-ext_0_26_4_60_F_230| true)
(= |memory_model::choice_ws-ext_0_78_3_14_F_231| false)
(= |memory_model::choice_ws-ext_0_78_4_41_F_232| false)
(= |memory_model::choice_ws-ext_0_78_4_60_F_233| false)
(= |memory_model::choice_ws-ext_3_14_4_41_F_234| false)
(= |memory_model::choice_ws-ext_3_14_4_60_F_235| true)
(= |memory_model::choice_ws-ext_0_27_3_17_F_236| true)
(= |memory_model::choice_ws-ext_0_27_4_43_F_237| true)
(= |memory_model::choice_ws-ext_3_17_4_43_F_238| false)
(= |memory_model::choice_ws-ext_0_28_3_15_F_239| true)
(= |memory_model::choice_ws-ext_0_28_4_42_F_240| true)
(= |memory_model::choice_ws-ext_3_15_4_42_F_241| false)
(= |memory_model::choice_ws-ext_0_32_3_16_F_242| true)
(= |memory_model::choice_ws-ext_0_33_4_14_F_243| true)
(= |memory_model::choice_ws-ext_0_33_4_35_F_244| true)
(= |memory_model::choice_ws-ext_0_33_4_56_F_245| true)
(= |memory_model::choice_ws-ext_0_34_4_15_F_246| true)
(= |memory_model::choice_ws-ext_0_74_4_15_F_247| false)
(= |memory_model::choice_ws-ext_0_35_4_13_F_248| true)
(= |memory_model::choice_ws-ext_0_36_4_12_F_249| true)
(= |memory_model::choice_ws-ext_0_37_3_9_F_250| true)
(= |memory_model::choice_ws-ext_0_37_4_17_F_251| true)
(= |memory_model::choice_ws-ext_3_9_4_17_F_252| false)
(= |memory_model::choice_ws-ext_0_38_4_16_F_253| true)
(= |memory_model::choice_ws-ext_0_38_4_36_F_254| true)
(= |memory_model::choice_ws-ext_0_38_4_57_F_255| true)
(= |memory_model::choice_ws-ext_0_41_3_12_F_256| true)
(= |memory_model::choice_ws-ext_0_41_4_20_F_257| true)
(= |memory_model::choice_ws-ext_0_41_4_39_F_258| true)
(= |memory_model::choice_ws-ext_3_12_4_20_F_259| false)
(= |memory_model::choice_ws-ext_3_12_4_39_F_260| false)
(= |memory_model::choice_ws-ext_0_42_3_10_F_261| true)
(= |memory_model::choice_ws-ext_0_42_4_18_F_262| true)
(= |memory_model::choice_ws-ext_0_42_4_37_F_263| true)
(= |memory_model::choice_ws-ext_0_42_4_58_F_264| true)
(= |memory_model::choice_ws-ext_0_76_3_10_F_265| false)
(= |memory_model::choice_ws-ext_0_76_4_18_F_266| false)
(= |memory_model::choice_ws-ext_0_76_4_37_F_267| false)
(= |memory_model::choice_ws-ext_0_76_4_58_F_268| false)
(= |memory_model::choice_ws-ext_3_10_4_18_F_269| false)
(= |memory_model::choice_ws-ext_3_10_4_37_F_270| false)
(= |memory_model::choice_ws-ext_3_10_4_58_F_271| true)
(= |memory_model::choice_ws-ext_0_43_3_11_F_272| true)
(= |memory_model::choice_ws-ext_0_43_4_21_F_273| true)
(= |memory_model::choice_ws-ext_0_43_4_38_F_274| true)
(= |memory_model::choice_ws-ext_3_11_4_21_F_275| false)
(= |memory_model::choice_ws-ext_3_11_4_38_F_276| false)
(= |memory_model::choice_ws-ext_0_44_3_13_F_277| true)
(= |memory_model::choice_ws-ext_0_44_4_19_F_278| true)
(= |memory_model::choice_ws-ext_0_44_4_40_F_279| true)
(= |memory_model::choice_ws-ext_0_44_4_59_F_280| true)
(= |memory_model::choice_ws-ext_0_77_3_13_F_281| false)
(= |memory_model::choice_ws-ext_0_77_4_19_F_282| false)
(= |memory_model::choice_ws-ext_0_77_4_40_F_283| false)
(= |memory_model::choice_ws-ext_0_77_4_59_F_284| false)
(= |memory_model::choice_ws-ext_3_13_4_19_F_285| false)
(= |memory_model::choice_ws-ext_3_13_4_40_F_286| false)
(= |memory_model::choice_ws-ext_3_13_4_59_F_287| true)
(= |memory_model::choice_ws-ext_0_22_3_19_F_288| true)
(= |memory_model::choice_ws-ext_0_22_4_45_F_289| true)
(= |memory_model::choice_ws-ext_3_19_4_45_F_290| false)
(= |memory_model::choice_ws-ext_0_23_3_18_F_291| true)
(= |memory_model::choice_ws-ext_0_23_4_44_F_292| true)
(= |memory_model::choice_ws-ext_3_18_4_44_F_293| false)
(= |main$tmp_guard0#3| #b00000001)
(= |__CPROVER_next_thread_id#3| #b00000000000000000000000000000001)
(= |__CPROVER_next_thread_id#6| #b00000000000000000000000000000010)
(= |__CPROVER_next_thread_id#9| #b00000000000000000000000000000011)
(= |__unbuffered_cnt#2| #b00000000000000000000000000000100)
(= |z$w_buff0_used#2| #b00000000)
(= |z$r_buff0_thd0#2| #b00000000)
(= |z$w_buff0#2| #b00000000000000000000000000000001)
(= |z$w_buff1_used#2| #b00000000)
(= |z$r_buff1_thd0#2| #b00000000)
(= |z$w_buff1#2| #b00000000000000000000000000000000)
(= |z#2| #b00000000000000000000000000000001)
(= |z#4| #b00000000000000000000000000000001)
(= |z$w_buff0_used#6| #b00000000)
(= |z$w_buff1_used#6| #b00000000)
(= |z$r_buff0_thd0#8| #b00000000)
(= |z$r_buff1_thd0#7| #b00000000)
(= |__unbuffered_p0_EAX#2| #b00000000000000000000000000000000)
(= |__unbuffered_p1_EAX#2| #b00000000000000000000000000000001)
(= |__unbuffered_p1_EBX#2| #b00000000000000000000000000000000)
(= |__unbuffered_p2_EAX#2| #b00000000000000000000000000000000)
(= |__unbuffered_p3_EAX#2| #b00000000000000000000000000000001)
(= |__unbuffered_p3_EBX#2| #b00000000000000000000000000000000)
(= |main$tmp_guard1#2| #b00000000)
(= |main$tmp_guard1#3| #b10000000)
(= |main$tmp_guard1#6| #b00000000)
(= |pthread_create::1::this_thread_id!1@0#0| #b00000000000000000000000000000000)
(= |x#2| #b00000000000000000000000000000000)
(= |__unbuffered_cnt#4| #b00000000000000000000000000000010)
(= |pthread_create::1::this_thread_id!2@0#0| #b00000000000000000000000000000000)
(= |x#5| #b00000000000000000000000000000001)
(= |y#2| #b00000000000000000000000000000000)
(= |__unbuffered_cnt#7| #b00000000000000000000000000000000)
(= |pthread_create::1::this_thread_id!3@0#0| #b10000000000000000000000000000000)
(= |nondet_symex::nondet2| #b10000000000000000000000000000000)
(= |nondet_symex::nondet3| #b10000000000000000000000000000000)
(= |z#6| #b00000000000000000000000000000000)
(= |z$w_buff0_used#11| #b00000001)
(= |z$r_buff0_thd3#2| #b00000000)
(= |z$w_buff1_used#9| #b00000000)
(= |z$r_buff1_thd3#2| #b00000000)
(= |z$w_buff0#4| #b00000000000000000000000000000001)
(= |z$w_buff1#4| #b00000000000000000000000000000000)
(= |__unbuffered_cnt#10| #b00000000000000000000000000000011)
(= |pthread_create::1::this_thread_id!4@0#0| #b01000000000000000000000000000000)
(= |z$w_buff0#7| #b00000000000000000000000000000000)
(= |z$w_buff0_used#14| #b00000000)
(= |z$r_buff0_thd0#11| #b00000000)
(= |z$r_buff1_thd0#9| #b00000000)
(= |z$r_buff1_thd0#10| #b10000000)
(= |z$r_buff0_thd1#2| #b00000000)
(= |z$r_buff1_thd1#2| #b00000000)
(= |z$r_buff1_thd1#3| #b10000000)
(= |z$r_buff0_thd2#2| #b00000000)
(= |z$r_buff1_thd2#2| #b00000000)
(= |z$r_buff1_thd2#3| #b10000000)
(= |z$r_buff0_thd3#5| #b00000000)
(= |z$r_buff1_thd3#5| #b00000000)
(= |z$r_buff1_thd3#6| #b10000000)
(= |z$r_buff0_thd4#2| #b00000000)
(= |z$r_buff1_thd4#2| #b00000000)
(= |z$r_buff1_thd4#3| #b10000000)
(= |z$r_buff0_thd4#4| #b00000001)
(= |nondet_symex::nondet5| #b00000000000000000000000000000000)
(= |weak$$choice0#3| #b00000000)
(= |weak$$choice0#4| #b10000000)
(= |nondet_symex::nondet6| #b10000000000000000000000000000000)
(= |weak$$choice2#3| #b00000001)
(= |weak$$choice2#4| #b10000000)
(= |z$flush_delayed#4| #b00000001)
(= |z$flush_delayed#5| #b10000000)
(= |z#10| #b00000000000000000000000000000000)
(= |z$mem_tmp#3| #b00000000000000000000000000000000)
(= |z$mem_tmp#4| #b10000000000000000000000000000000)
(= |z$w_buff0_used#17| #b00000001)
(= |z$r_buff0_thd4#6| #b00000001)
(= |z$w_buff1_used#13| #b00000000)
(= |z$r_buff1_thd4#5| #b00000000)
(= |z$w_buff0#10| #b00000000000000000000000000000001)
(= |z$w_buff1#8| #b00000000000000000000000000000000)
(= |z#13| #b00000000000000000000000000000001)
(= |z$w_buff0#16| #b00000000000000000000000000000001)
(= |z$w_buff1#14| #b00000000000000000000000000000000)
(= |z$w_buff0_used#29| #b00000001)
(= |z$w_buff1_used#21| #b00000000)
(= |z$r_buff0_thd4#28| #b00000001)
(= |z$r_buff1_thd4#15| #b00000000)
(= |__unbuffered_p3_EAX#4| #b00000000000000000000000000000001)
(= |__unbuffered_p3_EAX#5| #b10000000000000000000000000000000)
(= |z#17| #b00000000000000000000000000000000)
(= |z$flush_delayed#8| #b00000000)
(= |a#3| #b00000000000000000000000000000000)
(= |__unbuffered_p3_EBX#4| #b00000000000000000000000000000000)
(= |__unbuffered_p3_EBX#5| #b10000000000000000000000000000000)
(= |z$w_buff0_used#37| #b00000001)
(= |z$r_buff0_thd4#33| #b00000001)
(= |z$w_buff0#18| #b00000000000000000000000000000001)
(= |z$w_buff1_used#25| #b00000000)
(= |z$r_buff1_thd4#17| #b00000000)
(= |z$w_buff1#16| #b00000000000000000000000000000000)
(= |z#19| #b00000000000000000000000000000000)
(= |z#21| #b00000000000000000000000000000001)
(= |z$w_buff0_used#41| #b00000000)
(= |z$w_buff1_used#29| #b00000000)
(= |z$r_buff0_thd4#39| #b00000001)
(= |z$r_buff1_thd4#22| #b00000000)
(= |__unbuffered_cnt#13| #b00000000000000000000000000000001)
(= |__unbuffered_cnt#15| #b00000000000000000000000000000010)
(= |__CPROVER_threads_exited#1$wclk$8| #b00011010)
(= |__CPROVER_threads_exited#2$rclk$8| #b11111001)
(= |__CPROVER_threads_exited#5$wclk$8| #b11011111)
(= |__CPROVER_threads_exited#7$wclk$8| #b11110011)
(= |__CPROVER_threads_exited#9$wclk$8| #b11110001)
(= |__CPROVER_threads_exited#4$rclk$8| #b11011110)
(= |__CPROVER_threads_exited#3$wclk$8| #b11111110)
(= |__CPROVER_threads_exited#6$rclk$8| #b11101111)
(= |__CPROVER_threads_exited#8$rclk$8| #b11101100)
(= |x#1$wclk$8| #b00110000)
(= |x#2$rclk$8| #b11001001)
(= |x#4$wclk$8| #b11010010)
(= |x#5$rclk$8| #b11010011)
(= |__unbuffered_cnt#6$wclk$8| #b11101010)
(= |__unbuffered_cnt#2$rclk$8| #b11101101)
(= |__unbuffered_cnt#9$wclk$8| #b11011101)
(= |__unbuffered_cnt#12$wclk$8| #b11101011)
(= |__unbuffered_cnt#16$wclk$8| #b11101000)
(= |__unbuffered_cnt#1$wclk$8| #b00011011)
(= |__unbuffered_cnt#4$rclk$8| #b11101010)
(= |__unbuffered_cnt#7$rclk$8| #b11011101)
(= |__unbuffered_cnt#10$rclk$8| #b11101011)
(= |__unbuffered_cnt#13$rclk$8| #b11101000)
(= |__unbuffered_p0_EAX#4$wclk$8| #b11001001)
(= |__unbuffered_p0_EAX#2$rclk$8| #b11111001)
(= |__unbuffered_p1_EAX#4$wclk$8| #b11010011)
(= |__unbuffered_p1_EAX#2$rclk$8| #b11111001)
(= |__unbuffered_p1_EBX#4$wclk$8| #b11011010)
(= |__unbuffered_p1_EBX#2$rclk$8| #b11111001)
(= |__unbuffered_p2_EAX#4$wclk$8| #b11011111)
(= |__unbuffered_p2_EAX#2$rclk$8| #b11111001)
(= |__unbuffered_p3_EAX#6$wclk$8| #b11000101)
(= |__unbuffered_p3_EAX#2$rclk$8| #b11111001)
(= |__unbuffered_p3_EAX#1$wclk$8| #b00100100)
(= |__unbuffered_p3_EAX#5$rclk$8| #b11000101)
(= |__unbuffered_p3_EBX#6$wclk$8| #b11000110)
(= |__unbuffered_p3_EBX#2$rclk$8| #b11111001)
(= |__unbuffered_p3_EBX#1$wclk$8| #b00100101)
(= |__unbuffered_p3_EBX#5$rclk$8| #b11000110)
(= |a#1$wclk$8| #b00101010)
(= |a#3$rclk$8| #b11000110)
(= |a#2$wclk$8| #b11000111)
(= |main$tmp_guard1#5| #b00000000)
(= |y#1$wclk$8| #b00110001)
(= |y#2$rclk$8| #b11011010)
(= |y#4$wclk$8| #b11011110)
(= |z#9$wclk$8| #b11011111)
(= |z#2$rclk$8| #b11101111)
(= |z#18$wclk$8| #b11000101)
(= |z#22$wclk$8| #b11100111)
(= |z#1$wclk$8| #b00110010)
(= |z#6$rclk$8| #b11011111)
(= |z#5$wclk$8| #b11101111)
(= |z#10$rclk$8| #b11000101)
(= |z#19$rclk$8| #b11100111)
(= |z$flush_delayed#1$wclk$8| #b00110011)
(= |z$flush_delayed#5$rclk$8| #b11000101)
(= |z$flush_delayed#3$wclk$8| #b11011111)
(= |z$mem_tmp#1$wclk$8| #b00110100)
(= |z$mem_tmp#4$rclk$8| #b11000101)
(= |z$mem_tmp#2$wclk$8| #b11011111)
(= |z$r_buff0_thd0#1$wclk$8| #b00110101)
(= |z$r_buff0_thd0#11$rclk$8| #b11000100)
(= |z$r_buff0_thd0#10$wclk$8| #b11101111)
(= |z$r_buff0_thd1#1$wclk$8| #b00110110)
(= |z$r_buff0_thd1#2$rclk$8| #b11000100)
(= |z$r_buff0_thd2#1$wclk$8| #b00110111)
(= |z$r_buff0_thd2#2$rclk$8| #b11000100)
(= |z$r_buff0_thd3#1$wclk$8| #b00111000)
(= |z$r_buff0_thd3#2$rclk$8| #b11011111)
(= |z$r_buff0_thd3#5$rclk$8| #b11000100)
(= |z$r_buff0_thd3#4$wclk$8| #b11011111)
(= |z$r_buff0_thd4#1$wclk$8| #b01001001)
(= |z$r_buff0_thd4#2$rclk$8| #b11000100)
(= |z$r_buff0_thd4#6$rclk$8| #b11000101)
(= |z$r_buff0_thd4#33$rclk$8| #b11100111)
(= |z$r_buff1_thd0#11$wclk$8| #b11000100)
(= |z$r_buff1_thd0#2$rclk$8| #b11101111)
(= |z$r_buff1_thd0#1$wclk$8| #b01001100)
(= |z$r_buff1_thd0#10$rclk$8| #b11000100)
(= |z$r_buff1_thd0#8$wclk$8| #b11101111)
(= |z$r_buff1_thd1#1$wclk$8| #b01001101)
(= |z$r_buff1_thd1#3$rclk$8| #b11000100)
(= |z$r_buff1_thd2#1$wclk$8| #b01001110)
(= |z$r_buff1_thd2#3$rclk$8| #b11000100)
(= |z$r_buff1_thd3#1$wclk$8| #b01010001)
(= |z$r_buff1_thd3#2$rclk$8| #b11011111)
(= |z$r_buff1_thd3#7$wclk$8| #b11000100)
(= |z$r_buff1_thd3#6$rclk$8| #b11000100)
(= |z$r_buff1_thd3#4$wclk$8| #b11011111)
(= |z$r_buff1_thd4#1$wclk$8| #b01010010)
(= |z$r_buff1_thd4#3$rclk$8| #b11000100)
(= |z$r_buff1_thd4#5$rclk$8| #b11000101)
(= |z$r_buff1_thd4#17$rclk$8| #b11100111)
(= |z$w_buff0#6$wclk$8| #b11011111)
(= |z$w_buff0#2$rclk$8| #b11101111)
(= |z$w_buff0#9$wclk$8| #b11000100)
(= |z$w_buff0#17$wclk$8| #b11000101)
(= |z$w_buff0#1$wclk$8| #b01100011)
(= |z$w_buff0#4$rclk$8| #b11011111)
(= |z$w_buff0#7$rclk$8| #b11000100)
(= |z$w_buff0#10$rclk$8| #b11000101)
(= |z$w_buff0#18$rclk$8| #b11100111)
(= |z$w_buff0_used#13$wclk$8| #b11011111)
(= |z$w_buff0_used#2$rclk$8| #b11101111)
(= |z$w_buff0_used#16$wclk$8| #b11000100)
(= |z$w_buff0_used#36$wclk$8| #b11000101)
(= |z$w_buff0_used#45$wclk$8| #b11100111)
(= |z$w_buff0_used#1$wclk$8| #b01100100)
(= |z$w_buff0_used#11$rclk$8| #b11011111)
(= |z$w_buff0_used#10$wclk$8| #b11101111)
(= |z$w_buff0_used#14$rclk$8| #b11000100)
(= |z$w_buff0_used#17$rclk$8| #b11000101)
(= |z$w_buff0_used#37$rclk$8| #b11100111)
(= |z$w_buff1#6$wclk$8| #b11011111)
(= |z$w_buff1#2$rclk$8| #b11101111)
(= |z$w_buff1#7$wclk$8| #b11000100)
(= |z$w_buff1#15$wclk$8| #b11000101)
(= |z$w_buff1#1$wclk$8| #b01100101)
(= |z$w_buff1#4$rclk$8| #b11011111)
(= |z$w_buff1#8$rclk$8| #b11000101)
(= |z$w_buff1#16$rclk$8| #b11100111)
(= |z$w_buff1_used#11$wclk$8| #b11011111)
(= |z$w_buff1_used#2$rclk$8| #b11101111)
(= |z$w_buff1_used#12$wclk$8| #b11000100)
(= |z$w_buff1_used#24$wclk$8| #b11000101)
(= |z$w_buff1_used#31$wclk$8| #b11100111)
(= |z$w_buff1_used#1$wclk$8| #b01100110)
(= |z$w_buff1_used#9$rclk$8| #b11011111)
(= |z$w_buff1_used#8$wclk$8| #b11101111)
(= |z$w_buff1_used#13$rclk$8| #b11000101)
(= |z$w_buff1_used#25$rclk$8| #b11100111)
(= |weak$$choice0#1$wclk$8| #b00101101)
(= |weak$$choice0#4$rclk$8| #b11000101)
(= |weak$$choice0#2$wclk$8| #b11011111)
(= |weak$$choice2#1$wclk$8| #b00101110)
(= |weak$$choice2#4$rclk$8| #b11000101)
(= |weak$$choice2#2$wclk$8| #b11011111)
(= |__unbuffered_p0_EAX#1$wclk$8| #b00100000)
(= |__unbuffered_p1_EAX#1$wclk$8| #b00100001)
(= |__unbuffered_p1_EBX#1$wclk$8| #b00100010)
(= |__unbuffered_p2_EAX#1$wclk$8| #b00100011)
(= |z$flush_delayed#9$wclk$8| #b11000101)
(= |z$mem_tmp#6$wclk$8| #b11000101)
(= |z$r_buff0_thd4#5$wclk$8| #b11000100)
(= |z$r_buff0_thd4#32$wclk$8| #b11000101)
(= |z$r_buff0_thd4#41$wclk$8| #b11100111)
(= |z$r_buff1_thd1#4$wclk$8| #b11000100)
(= |z$r_buff1_thd2#4$wclk$8| #b11000100)
(= |z$r_buff1_thd4#4$wclk$8| #b11000100)
(= |z$r_buff1_thd4#16$wclk$8| #b11000101)
(= |z$r_buff1_thd4#23$wclk$8| #b11100111)
(= |weak$$choice0#5$wclk$8| #b11000101)
(= |weak$$choice2#12$wclk$8| #b11000101)
(= t1$48$spwnclk$8 #b01101010)
(= t1$53$spwnclk$8 #b01101111)
(= t1$58$spwnclk$8 #b01111111)
(= t1$63$spwnclk$8 #b11000010)
(= |main::1::t352!0@1$wclk$8| #b00000000)
(= |main::1::t353!0@1$wclk$8| #b00000001)
(= |main::1::t354!0@1$wclk$8| #b00000010)
(= |__CPROVER_dead_object#1$wclk$8| #b00000011)
(= |__CPROVER_deallocated#1$wclk$8| #b00010010)
(= |__CPROVER_malloc_is_new_array#1$wclk$8| #b00010100)
(= |__CPROVER_malloc_object#1$wclk$8| #b00010101)
(= |__CPROVER_malloc_size#1$wclk$8| #b00010110)
(= |__CPROVER_memory_leak#1$wclk$8| #b00010111)
(= |__CPROVER_next_thread_id#1$wclk$8| #b00011000)
(= |__CPROVER_pipe_count#1$wclk$8| #b00011001)
(= |main$tmp_guard0#1$wclk$8| #b00101011)
(= |main$tmp_guard1#1$wclk$8| #b00101100)
(= |z$read_delayed#1$wclk$8| #b01100001)
(= |z$read_delayed_var#1$wclk$8| #b01100010)
(= |main::1::t351!0@1#1$wclk$8| #b01100111)
(= |__CPROVER_next_thread_id#2$wclk$8| #b01101000)
(= |main::1::t351!0@1#2$wclk$8| #b01101001)
(= |main::1::t352!0@1#1$wclk$8| #b01101011)
(= |__CPROVER_next_thread_id#3$rclk$8| #b01101101)
(= |__CPROVER_next_thread_id#5$wclk$8| #b01101101)
(= |main::1::t352!0@1#2$wclk$8| #b01101110)
(= |main::1::t353!0@1#1$wclk$8| #b01111100)
(= |__CPROVER_next_thread_id#6$rclk$8| #b01111101)
(= |__CPROVER_next_thread_id#8$wclk$8| #b01111101)
(= |main::1::t353!0@1#2$wclk$8| #b01111110)
(= |main::1::t354!0@1#1$wclk$8| #b10011001)
(= |__CPROVER_next_thread_id#9$rclk$8| #b11000000)
(= |__CPROVER_next_thread_id#11$wclk$8| #b11000000)
(= |main::1::t354!0@1#2$wclk$8| #b11000001)
(= |main$tmp_guard0#2$wclk$8| #b11101101)
(= |main$tmp_guard0#3$rclk$8| #b11101110)
(= |z$r_buff0_thd0#2$rclk$8| #b11101111)
(= |main$tmp_guard1#3$rclk$8| #b11111001)
(= |main$tmp_guard1#4$wclk$8| #b11111001)
(= |main$tmp_guard1#5$rclk$8| #b11111110)
(= |main$tmp_guard1#6$rclk$8| #b11111111)
(= array_of.0 @fun_12)
(= |__CPROVER_threads_exited#2| @fun_9)
(= |__CPROVER_threads_exited#4| @fun_12)
(= |__CPROVER_threads_exited#6| @fun_13)
(= |__CPROVER_threads_exited#8| @fun_13)
(function @fun_12
 (type (Array (_ BitVec 32) (_ BitVec 1)))
 (= (@fun_12 #b01000000000000000000000000000000) #b0)
 (= (@fun_12 #b00000000000000000000000000000000) #b0)
 (= (@fun_12 #b10000000000000000000000000000000) #b0)
 (default #b1))
(function @fun_9
 (type (Array (_ BitVec 32) (_ BitVec 1)))
 (= (@fun_9 #b01000000000000000000000000000000) #b0)
 (default #b1))
(function @fun_13
 (type (Array (_ BitVec 32) (_ BitVec 1)))
 (= (@fun_13 #b01000000000000000000000000000000) #b0)
 (= (@fun_13 #b10000000000000000000000000000000) #b0)
 (default #b1))

real	0m0.032s
user	0m0.023s
sys	0m0.010s
State: AC Run_time: 0.03421354293823242